NAME          ClpDefau  FREE
ROWS
 N  OBJROW
 L  ZMUNI1_PCT
 L  ZMUNI2_PCT
 L  ZMUNI3_PCT
 L  ZMUNI4_PCT
 L  ZMUNI5_PCT
 L  ZMUNI6_PCT
 L  ZMUNI7_PCT
 L  ZMUNI8_PCT
 L  ZMUNI9_PCT
COLUMNS
    QMUNI1 OBJROW 1.          
    QMUNI1 ZMUNI1_PCT 27992.269397
    QMUNI1 ZMUNI2_PCT 1818.49003  
    QMUNI1 ZMUNI3_PCT 4397.39227  
    QMUNI1 ZMUNI4_PCT 3170.25185  
    QMUNI1 ZMUNI5_PCT  -68.2555139
    QMUNI1 ZMUNI6_PCT 166.6069    
    QMUNI1 ZMUNI7_PCT 1659.01185  
    QMUNI1 ZMUNI8_PCT 1393.17512  
    QMUNI1 ZMUNI9_PCT 542.79566   
    QMUNI2 OBJROW 1.          
    QMUNI2 ZMUNI1_PCT 1595.568657 
    QMUNI2 ZMUNI2_PCT 32436.70464 
    QMUNI2 ZMUNI3_PCT 2451.46752  
    QMUNI2 ZMUNI4_PCT 2611.1126   
    QMUNI2 ZMUNI5_PCT  -479.729474
    QMUNI2 ZMUNI6_PCT  -386.90568 
    QMUNI2 ZMUNI7_PCT 533.247     
    QMUNI2 ZMUNI8_PCT 818.20488   
    QMUNI2 ZMUNI9_PCT 690.72246   
    QMUNI3 OBJROW 1.          
    QMUNI3 ZMUNI1_PCT 4503.279925 
    QMUNI3 ZMUNI2_PCT 2819.08512  
    QMUNI3 ZMUNI3_PCT 29441.47587 
    QMUNI3 ZMUNI4_PCT 5378.15094  
    QMUNI3 ZMUNI5_PCT 182.3637635 
    QMUNI3 ZMUNI6_PCT 356.55498   
    QMUNI3 ZMUNI7_PCT 1656.15082  
    QMUNI3 ZMUNI8_PCT 1633.6441   
    QMUNI3 ZMUNI9_PCT 933.34913   
    QMUNI4 OBJROW 1.          
    QMUNI4 ZMUNI1_PCT 3520.959616 
    QMUNI4 ZMUNI2_PCT 3214.52618  
    QMUNI4 ZMUNI3_PCT 5810.07004  
    QMUNI4 ZMUNI4_PCT 101432.18041
    QMUNI4 ZMUNI5_PCT  -104.406476
    QMUNI4 ZMUNI6_PCT 33.68854    
    QMUNI4 ZMUNI7_PCT 1270.24651  
    QMUNI4 ZMUNI8_PCT 1373.24333  
    QMUNI4 ZMUNI9_PCT 963.41371   
    QMUNI5 OBJROW 1.          
    QMUNI5 ZMUNI1_PCT 220.9723    
    QMUNI5 ZMUNI2_PCT 154.94824   
    QMUNI5 ZMUNI3_PCT 196.0516    
    QMUNI5 ZMUNI4_PCT 156.59333   
    QMUNI5 ZMUNI5_PCT 30479.126424
    QMUNI5 ZMUNI6_PCT 2558.49361  
    QMUNI5 ZMUNI7_PCT 294.92379   
    QMUNI5 ZMUNI8_PCT 213.28926   
    QMUNI5 ZMUNI9_PCT 144.69623   
    QMUNI6 OBJROW 1.          
    QMUNI6 ZMUNI1_PCT 442.093611  
    QMUNI6 ZMUNI2_PCT 272.70317   
    QMUNI6 ZMUNI3_PCT 374.48406   
    QMUNI6 ZMUNI4_PCT 290.91836   
    QMUNI6 ZMUNI5_PCT 2556.9550693
    QMUNI6 ZMUNI6_PCT 30017.59052 
    QMUNI6 ZMUNI7_PCT 620.2221    
    QMUNI6 ZMUNI8_PCT 444.74601   
    QMUNI6 ZMUNI9_PCT 271.57068   
    QMUNI7 OBJROW 1.          
    QMUNI7 ZMUNI1_PCT 1423.376799 
    QMUNI7 ZMUNI2_PCT 748.1575    
    QMUNI7 ZMUNI3_PCT 1231.76575  
    QMUNI7 ZMUNI4_PCT 915.81345   
    QMUNI7 ZMUNI5_PCT 128.6178827 
    QMUNI7 ZMUNI6_PCT 355.79204   
    QMUNI7 ZMUNI7_PCT 25518.322   
    QMUNI7 ZMUNI8_PCT 2126.26457  
    QMUNI7 ZMUNI9_PCT 423.28834   
    QMUNI8 OBJROW 1.          
    QMUNI8 ZMUNI1_PCT 1225.554943 
    QMUNI8 ZMUNI2_PCT 1059.93748  
    QMUNI8 ZMUNI3_PCT 1260.08988  
    QMUNI8 ZMUNI4_PCT 989.24637   
    QMUNI8 ZMUNI5_PCT  -52.2136688
    QMUNI8 ZMUNI6_PCT 80.84774    
    QMUNI8 ZMUNI7_PCT 2187.6812   
    QMUNI8 ZMUNI8_PCT 24963.18817 
    QMUNI8 ZMUNI9_PCT 1166.2364   
    QMUNI9 OBJROW 1.          
    QMUNI9 ZMUNI1_PCT 806.742907  
    QMUNI9 ZMUNI2_PCT 1173.3532   
    QMUNI9 ZMUNI3_PCT 931.35834   
    QMUNI9 ZMUNI4_PCT 816.58364   
    QMUNI9 ZMUNI5_PCT  -10.1625919
    QMUNI9 ZMUNI6_PCT 84.80548    
    QMUNI9 ZMUNI7_PCT 983.57201   
    QMUNI9 ZMUNI8_PCT 1613.47389  
    QMUNI9 ZMUNI9_PCT 24143.1117  
RHS
    RHS ZMUNI1_PCT  -2.44370566
    RHS ZMUNI2_PCT  -2.79338375
    RHS ZMUNI3_PCT  -3.33168626
    RHS ZMUNI4_PCT  -1.14372269
    RHS ZMUNI5_PCT  -3.65864601
    RHS ZMUNI6_PCT  -3.51393838
    RHS ZMUNI7_PCT  -7.9091819 
    RHS ZMUNI8_PCT  -7.15484592
    RHS ZMUNI9_PCT  -5.81999208
BOUNDS
 LO BOUND QMUNI1 -0.001319839
 UP BOUND QMUNI1      1.1e+10
 LO BOUND QMUNI2 -0.000989935
 UP BOUND QMUNI2      1.1e+10
 LO BOUND QMUNI3 -0.001083607
 UP BOUND QMUNI3      1.1e+10
 LO BOUND QMUNI4 -0.000326224
 UP BOUND QMUNI4      1.1e+10
 LO BOUND QMUNI5 -0.000997418
 UP BOUND QMUNI5      1.1e+10
 LO BOUND QMUNI6 -0.00117626 
 UP BOUND QMUNI6      1.1e+10
 LO BOUND QMUNI7 -0.001020192
 UP BOUND QMUNI7      1.1e+10
 LO BOUND QMUNI8 -0.001091732
 UP BOUND QMUNI8      1.1e+10
 LO BOUND QMUNI9 -0.001201059
 UP BOUND QMUNI9      1.1e+10
ENDATA
